(set-logic QF_S)
(declare-fun T_SELECT_1 () Bool)
(declare-fun T_e () Bool)
(declare-fun T_f () Bool)
(declare-fun I0_24 () Int)
(declare-fun PCTEMP_LHS_5 () Int)
(declare-fun T0_24 () String)
(declare-fun T1_24 () String)
(declare-fun T2_24 () String)
(declare-fun T3_24 () String)
(declare-fun T4_24 () String)
(declare-fun T5_24 () String)
(declare-fun T_c () String)
(assert (= T_c (str.++ T0_24 T1_24)))
(assert (= T1_24 (str.++ T2_24 T3_24)))
(assert (= T2_24 (str.++ T4_24 T5_24)))
(assert (not (str.in.re T4_24 (str.to.re "__utmz=218069774."))))
(assert (= T5_24 "__utmz=218069774."))
(assert T_f)
(assert (= T_f (not T_e)))
(assert (= T_e (< (- 1) PCTEMP_LHS_5)))
(assert (= PCTEMP_LHS_5 (+ I0_24 0)))
(assert (= T_SELECT_1 (not (= PCTEMP_LHS_5 (- 1)))))
(assert (= 0 (str.len T0_24))) ; len 0
(assert (= I0_24 (str.len T4_24))) ; len 1
(assert T_SELECT_1)
(check-sat)
